
List of user-set options:

                                    Name   Value                used
                           compl_inf_tol = 1                     yes
                         constr_viol_tol = 1                     yes
                            dual_inf_tol = 1000                  yes
                           linear_solver = ma97                  yes
                              ma86_small = 1e-30                  no
                                  ma86_u = 0.0001                 no
                              ma97_order = best                  yes
                              ma97_small = 1e-30                 yes
                            ma97_switch1 = at_start              yes
                            ma97_switch2 = od_hd_reuse           yes
                                  ma97_u = 1e-06                 yes
                               ma97_umax = 0.5                   yes
                                max_iter = 1000                  yes
                    max_refinement_steps = 20                    yes
                    min_refinement_steps = 5                     yes
                                 mu_init = 1e-06                 yes
           mu_superlinear_decrease_power = 1.25                  yes
                   nlp_scaling_min_value = 1e-08                 yes
                        option_file_name = Preset_Case:_680_NCP.opt  yes
                             output_file = ./tmp/Preset_Case:_680_NCP.output  yes
                      print_user_options = yes                   yes
        required_infeasibility_reduction = 1                      no
                                     tol = 1e-08                 yes
                   warm_start_bound_frac = 1e-20                 yes
                   warm_start_bound_push = 1e-20                 yes
                   warm_start_init_point = yes                   yes
              warm_start_mult_bound_push = 1e-20                 yes
                warm_start_mult_init_max = 1e+40                 yes
             warm_start_slack_bound_frac = 1e-20                 yes
             warm_start_slack_bound_push = 1e-20                 yes

******************************************************************************
This program contains Ipopt, a library for large-scale nonlinear optimization.
 Ipopt is released as open source code under the Eclipse Public License (EPL).
         For more information visit http://projects.coin-or.org/Ipopt
******************************************************************************

This is Ipopt version 3.12.10, running with linear solver ma97.

Number of nonzeros in equality constraint Jacobian...:   117167
Number of nonzeros in inequality constraint Jacobian.:      213
Number of nonzeros in Lagrangian Hessian.............:    47513

Total number of variables............................:    29977
                     variables with only lower bounds:    11312
                variables with lower and upper bounds:    15135
                     variables with only upper bounds:        0
Total number of equality constraints.................:    29864
Total number of inequality constraints...............:       25
        inequality constraints with only lower bounds:        4
   inequality constraints with lower and upper bounds:        0
        inequality constraints with only upper bounds:       21

iter    objective    inf_pr   inf_du lg(mu)  ||d||  lg(rg) alpha_du alpha_pr  ls
   0 -1.5580925e-01 7.76e-02 2.00e+00  -6.0 0.00e+00    -  0.00e+00 0.00e+00   0
In iteration 0, 9 Slacks too small, adjusting variable bounds
   1 -1.5580925e-01 7.76e-02 7.06e+02  -6.0 1.16e+10    -  7.06e-14 1.31e-18h  1
   2 -1.5580840e-01 7.76e-02 7.06e+02  -6.0 2.67e+02    -  8.37e-03 2.57e-05f  1
   3 -1.5565513e-01 7.67e-02 6.91e+02  -6.0 5.63e+01    -  8.19e-02 1.16e-02h  1
   4 -1.5552690e-01 7.61e-02 6.86e+02  -6.0 8.98e+01    -  3.63e-03 7.99e-03h  1
   5 -1.5471499e-01 7.01e-02 6.35e+02  -6.0 7.68e+01    -  3.95e-02 7.97e-02H  1
   6 -1.5471500e-01 7.00e-02 1.05e+04  -6.0 8.91e+01    -  1.68e-02 4.13e-06h  2
   7 -1.5477787e-01 6.91e-02 1.94e+03  -6.0 1.25e+02    -  2.45e-03 1.29e-02h  2
   8 -1.5485391e-01 6.79e-02 8.42e+03  -6.0 4.04e+01    -  2.80e-02 1.81e-02h  3
   9 -1.5494558e-01 6.65e-02 7.31e+03  -6.0 3.96e+01    -  1.85e-02 1.99e-02h  3
iter    objective    inf_pr   inf_du lg(mu)  ||d||  lg(rg) alpha_du alpha_pr  ls
  10 -1.5504429e-01 6.51e-02 7.74e+04  -6.0 3.99e+01    -  1.24e-01 2.20e-02h  3
  11 -1.5578160e-01 4.88e-01 8.12e+03  -6.0 4.13e+01    -  9.25e-02 1.86e-01h  1
  12 -1.5571625e-01 4.83e-01 1.22e+05  -6.0 2.72e+01    -  2.10e-01 1.29e-02h  6
  13 -1.5569496e-01 4.81e-01 2.32e+05  -6.0 3.46e+01    -  2.93e-01 3.26e-03h  8
  14 -1.5568423e-01 4.81e-01 2.82e+05  -6.0 3.56e+01    -  3.13e-01 1.56e-03h  9
  15 -1.5568391e-01 4.81e-01 2.89e+05  -6.0 3.21e+01    -  2.95e-01 5.63e-05h 14
  16 -1.5568378e-01 4.80e-01 2.69e+05  -6.0 3.63e+01    -  3.77e-01 3.25e-05h 15
  17 -1.5552388e-01 4.30e-01 2.12e+05  -6.0 4.46e+01    -  3.73e-01 7.74e-02h  4
  18 -1.5536101e-01 3.77e-01 1.41e+05  -6.0 4.69e+01    -  4.33e-01 8.10e-02h  4
  19 -1.5493580e-01 4.82e-01 9.30e+04  -6.0 3.12e+01  -4.0 6.24e-01 1.48e-01h  3
iter    objective    inf_pr   inf_du lg(mu)  ||d||  lg(rg) alpha_du alpha_pr  ls
  20 -1.5463348e-01 4.70e-01 5.32e+04  -6.0 3.68e+01  -4.5 3.49e-01 7.64e-02h  4
  21 -1.5368931e-01 4.28e-01 2.26e+04  -6.0 1.50e+01  -3.1 1.50e-02 1.33e-01h  3
  22 -1.5018990e-01 1.21e+00 3.77e+04  -6.0 1.22e+01  -3.6 6.16e-02 5.77e-01w  1
  23 -1.4459136e-01 1.09e+00 1.50e+05  -6.0 5.76e+00  -3.2 3.48e-01 1.00e+00w  1
  24 -1.4354046e-01 2.63e-01 3.33e+04  -6.0 3.52e+00  -3.7 6.78e-01 1.00e+00h  1
  25 -1.4969340e-01 1.74e-01 9.86e+04  -6.0 1.80e+01  -4.2 1.99e-01 2.60e-01h  1
  26 -1.4964952e-01 1.06e-01 6.25e+05  -6.0 3.95e+00  -4.6 1.74e-01 1.00e+00H  1
  27 -1.5444609e-01 2.58e-01 8.36e+05  -6.0 2.53e+02    -  5.91e-02 1.65e-01H  1
  28 -1.5923354e-01 2.22e-01 3.51e+05  -6.0 1.44e+02    -  2.24e-01 1.55e-01h  1
  29r-1.5923354e-01 2.22e-01 1.00e+03  -1.0 0.00e+00    -  0.00e+00 3.46e-07R  2
iter    objective    inf_pr   inf_du lg(mu)  ||d||  lg(rg) alpha_du alpha_pr  ls
  30r-1.5890394e-01 2.19e-01 1.00e+03  -1.0 6.63e+03    -  3.59e-05 2.25e-05f  1
  31 -1.5960634e-01 1.09e-01 2.78e+07  -6.0 7.13e-01    -  2.21e-01 5.01e-01h  1
  32 -1.5998884e-01 5.06e-02 8.82e+06  -6.0 1.98e-01    -  4.44e-01 5.37e-01h  1
  33 -1.6002063e-01 4.72e-02 1.05e+07  -6.0 2.43e-01    -  7.69e-01 6.66e-02h  1
  34 -1.6060732e-01 1.94e-04 9.21e+01  -6.0 1.25e+00    -  5.92e-01 1.00e+00h  1
  35 -1.6129173e-01 1.79e-03 3.71e+01  -6.0 4.08e+00    -  3.49e-01 5.97e-01h  1
  36 -1.6295869e-01 6.27e-03 1.08e+01  -6.0 6.24e+00    -  5.40e-01 1.00e+00f  1
  37 -1.6634692e-01 2.89e-02 7.91e+00  -6.0 1.31e+01    -  2.75e-01 1.00e+00h  1
  38 -1.6967708e-01 2.36e-02 5.91e+00  -6.0 1.65e+01    -  2.73e-01 1.00e+00h  1
  39 -1.7278460e-01 3.10e-02 3.05e+00  -6.0 2.06e+01    -  5.04e-01 7.54e-01h  1
iter    objective    inf_pr   inf_du lg(mu)  ||d||  lg(rg) alpha_du alpha_pr  ls
  40 -1.7696291e-01 5.67e-02 2.84e+00  -6.0 3.63e+01    -  4.36e-01 5.45e-01f  1
  41 -1.7879752e-01 4.06e-02 2.87e+00  -6.0 2.31e+01    -  6.99e-01 3.99e-01h  1
  42 -1.8120624e-01 6.37e-02 9.70e+00  -6.0 6.44e+01    -  6.25e-01 2.46e-01h  1
  43 -1.8179700e-01 6.29e-02 2.50e+01  -6.0 1.46e+02    -  6.26e-01 3.82e-02h  1
  44 -1.9153504e-01 2.57e+00 7.87e+01  -6.0 3.69e+02    -  5.43e-01 3.90e-01h  1
  45 -1.9223064e-01 1.21e+00 7.22e+01  -6.0 3.93e+02  -5.1 1.63e-04 5.28e-01h  1
  46 -1.9259253e-01 7.57e-01 1.66e+01  -6.0 7.54e+00  -5.6 8.76e-01 3.76e-01h  1
  47 -1.9337324e-01 5.00e-01 1.23e+01  -6.0 1.72e+01  -6.1 3.89e-01 3.67e-01h  1
  48 -1.9501717e-01 1.38e+00 9.76e+00  -6.0 5.55e+01  -6.5 6.71e-01 4.00e-01h  1
  49 -1.9587336e-01 1.94e+00 1.30e+01  -6.0 1.63e+02  -7.0 4.46e-01 8.23e-02h  1
iter    objective    inf_pr   inf_du lg(mu)  ||d||  lg(rg) alpha_du alpha_pr  ls
  50 -1.9908583e-01 2.54e+01 4.10e+01  -6.0 3.49e+02  -7.5 1.65e-01 1.63e-01h  1
  51 -1.9927930e-01 2.34e+01 3.49e+01  -6.0 6.32e+01  -7.1 8.32e-01 7.90e-02h  1
  52 -1.9996199e-01 2.05e+01 6.59e+01  -6.0 2.39e+02  -7.5 7.38e-01 1.36e-01h  1
  53 -2.0051116e-01 1.51e+01 4.75e+01  -6.0 6.48e+01  -7.1 1.00e+00 2.66e-01h  1
  54 -2.0193448e-01 1.12e+01 7.34e+01  -6.0 2.05e+02  -7.6 1.00e+00 3.88e-01h  1
  55 -2.0282223e-01 1.10e+01 1.44e+02  -6.0 5.76e+02  -8.1 1.00e+00 1.01e-01h  1
  56 -2.0431395e-01 6.78e+00 1.00e+02  -6.0 1.99e+02  -7.6 2.21e-01 4.72e-01h  1
  57 -2.0502294e-01 8.17e+00 9.38e+01  -6.0 8.00e+02  -8.1 6.26e-02 6.53e-02h  1
  58 -2.0508900e-01 7.98e+00 3.39e+01  -6.0 1.81e+02  -7.7 7.23e-01 2.37e-02h  1
  59 -2.1216208e-01 3.22e+00 1.28e+01  -6.0 4.46e+02  -8.2 6.25e-01 1.00e+00h  1
iter    objective    inf_pr   inf_du lg(mu)  ||d||  lg(rg) alpha_du alpha_pr  ls
  60 -2.1408300e-01 3.99e-01 1.66e+01  -6.0 1.49e+02  -7.7 5.97e-01 1.00e+00h  1
  61 -2.1482089e-01 9.67e-02 1.03e+00  -6.0 5.30e+01  -7.3 1.00e+00 1.00e+00h  1
  62 -2.1611628e-01 5.21e-01 1.09e+01  -6.0 2.65e+02  -7.8 2.32e-01 4.91e-01h  1
  63 -2.1941195e-01 1.13e+00 1.83e+01  -6.0 3.24e+02  -8.3 1.13e-01 7.09e-01h  1
  64 -2.1992260e-01 9.27e-01 1.67e+01  -6.0 3.69e+02  -7.9 6.84e-02 1.87e-01h  1
  65 -2.2401253e-01 2.53e+00 6.45e+00  -6.0 3.50e+02  -8.3 1.00e+00 1.00e+00h  1
  66 -2.2656880e-01 3.40e+00 2.73e+01  -6.0 1.60e+03  -8.8 2.10e-01 2.44e-01h  1
  67 -2.2878411e-01 3.67e+00 4.56e+01  -6.0 5.28e+02  -8.4 1.00e+00 5.25e-01h  1
  68 -2.2983769e-01 5.63e+00 9.91e+01  -6.0 3.35e+02  -8.0 1.00e+00 4.03e-01h  1
  69 -2.3244262e-01 3.41e+00 3.53e+01  -6.0 4.17e+02  -8.4 5.13e-01 1.00e+00h  1
iter    objective    inf_pr   inf_du lg(mu)  ||d||  lg(rg) alpha_du alpha_pr  ls
  70 -2.3363274e-01 3.56e+00 2.61e+02  -6.0 1.75e+03  -8.9 5.43e-01 1.09e-01h  1
  71 -2.3372087e-01 2.70e+00 2.06e+02  -6.0 9.03e+00  -5.8 3.32e-01 2.42e-01h  1
  72 -2.3353162e-01 4.26e-01 2.00e+02  -6.0 7.15e+00  -6.2 1.83e-02 1.00e+00h  1
  73 -2.3364568e-01 7.42e-02 8.43e+01  -6.0 9.50e+00  -6.7 4.64e-01 1.00e+00h  1
  74 -2.3388715e-01 2.65e-01 7.68e+00  -6.0 2.77e+01  -7.2 9.30e-01 1.00e+00h  1
  75 -2.3401613e-01 2.26e-01 1.66e+01  -6.0 7.27e+01  -7.7 1.00e+00 1.81e-01h  1
  76 -2.3491425e-01 5.54e-01 1.87e+01  -6.0 1.73e+02  -8.2 7.68e-01 5.18e-01h  1
  77 -2.3558726e-01 5.91e-01 4.13e+01  -6.0 5.27e+02  -8.6 1.00e+00 1.80e-01h  1
  78 -2.3929806e-01 4.06e+00 1.86e+01  -6.0 8.25e+02  -9.1 3.35e-01 5.74e-01h  1
  79 -2.4001574e-01 3.19e+00 2.83e+01  -6.0 9.14e+02  -8.7 1.00e+00 2.20e-01h  1
iter    objective    inf_pr   inf_du lg(mu)  ||d||  lg(rg) alpha_du alpha_pr  ls
  80 -2.4256234e-01 3.53e+00 2.78e+01  -6.0 8.20e+02  -9.2 9.08e-01 4.50e-01h  1
  81 -2.4491499e-01 1.41e+01 5.90e+01  -6.0 2.61e+03  -9.6 1.95e-03 2.82e-01h  1
  82 -2.4471955e-01 1.02e+01 1.88e+02  -6.0 3.20e+02  -6.5 1.10e-02 2.78e-01h  1
  83 -2.4475576e-01 8.23e+00 1.56e+02  -6.0 8.80e+00  -6.1 3.99e-01 1.92e-01h  1
  84 -2.4461089e-01 1.17e+00 1.27e+02  -6.0 5.81e+00  -6.6 6.59e-01 8.58e-01h  1
  85 -2.4469068e-01 9.36e-02 7.44e+00  -6.0 7.30e+00  -7.0 1.00e+00 9.20e-01h  1
  86 -2.4480804e-01 1.05e-02 1.91e-01  -6.0 1.70e+01  -7.5 1.00e+00 9.37e-01h  1
  87 -2.4508451e-01 1.43e-01 2.59e-01  -6.0 4.56e+01  -8.0 1.00e+00 1.00e+00h  1
  88 -2.4580844e-01 5.05e-01 2.07e+00  -6.0 1.38e+02  -8.5 1.00e+00 1.00e+00h  1
  89 -2.4741719e-01 3.98e+00 1.84e+01  -6.0 4.20e+02  -8.9 1.00e+00 1.00e+00h  1
iter    objective    inf_pr   inf_du lg(mu)  ||d||  lg(rg) alpha_du alpha_pr  ls
  90 -2.4891668e-01 9.65e+00 4.28e+01  -6.0 1.21e+03  -9.4 5.79e-01 4.72e-01h  1
  91 -2.4888593e-01 7.34e+00 3.25e+01  -6.0 2.97e+02  -8.1 2.93e-01 2.52e-01h  1
Error in an AMPL evaluation. Run with "halt_on_ampl_error yes" to see details.
Warning: Cutting back alpha due to evaluation error
  92 -2.4894252e-01 5.60e+00 2.48e+01  -6.0 1.19e+02  -8.6 4.13e-02 2.38e-01h  2
  93 -2.4896423e-01 2.19e-01 6.30e+00  -6.0 1.23e+01  -7.2 6.46e-01 9.61e-01h  1
  94 -2.4899362e-01 1.38e-02 2.50e-01  -6.0 1.92e+01  -7.7 1.00e+00 1.00e+00f  1
  95 -2.4911662e-01 7.16e-02 1.07e+00  -6.0 5.20e+01  -8.2 1.00e+00 7.62e-01h  1
  96 -2.4929071e-01 1.46e-01 7.18e+00  -6.0 1.49e+02  -8.7 1.00e+00 5.89e-01h  1
  97 -2.4967760e-01 1.23e+00 9.67e+00  -6.0 4.04e+02  -9.1 7.13e-01 5.07e-01h  1
  98 -2.5016350e-01 8.04e+00 7.82e-01  -6.0 7.26e+02  -9.6 1.00e+00 1.00e+00h  1
  99 -2.5022695e-01 3.00e-01 1.86e+00  -6.0 1.04e+02  -8.3 1.00e+00 1.00e+00h  1
iter    objective    inf_pr   inf_du lg(mu)  ||d||  lg(rg) alpha_du alpha_pr  ls
 100 -2.5052000e-01 1.29e+00 1.69e+01  -6.0 7.52e+02  -8.8 3.84e-01 2.60e-01h  1
 101 -2.5085391e-01 9.98e-01 3.08e+02  -6.0 2.22e+02  -9.2 1.00e+00 5.94e-01h  1
 102 -2.5115186e-01 8.09e-01 2.63e+02  -6.0 5.03e+02  -9.7 5.17e-01 4.41e-01h  1
 103 -2.5122032e-01 7.62e-01 2.45e+02  -6.0 8.45e+03 -10.2 6.25e-02 6.32e-02h  1
 104 -2.5173641e-01 9.22e-01 3.16e+02  -6.0 5.82e+02  -9.8 1.00e+00 8.66e-01h  1
 105 -2.5221967e-01 2.27e+00 3.66e+02  -6.0 2.15e+03 -10.3 4.95e-01 5.97e-01h  1
 106 -2.5244894e-01 1.31e+00 1.97e+02  -6.0 8.79e+02  -9.8 3.99e-01 3.94e-01h  1
 107 -2.5256957e-01 1.31e+00 2.88e+02  -6.0 1.29e+04 -10.3 4.45e-02 6.23e-02h  1
 108 -2.5290296e-01 9.18e-01 2.49e+03  -6.0 6.79e+02  -9.9 6.32e-02 7.22e-01h  1
 109 -2.5285420e-01 1.90e+00 5.55e+05  -6.0 1.23e+03  -9.5 4.58e-03 2.75e-01h  1
iter    objective    inf_pr   inf_du lg(mu)  ||d||  lg(rg) alpha_du alpha_pr  ls
 110 -2.5283572e-01 4.06e-01 2.98e+02  -6.0 2.26e+02  -9.0 4.62e-01 1.00e+00f  1
 111 -2.5292429e-01 1.51e+00 2.58e+02  -6.0 1.88e+03  -9.5 4.01e-01 1.46e-01h  1
 112 -2.5318603e-01 6.11e+00 1.52e+03  -6.0 6.03e+02 -10.0 1.51e-01 9.92e-01h  1
 113 -2.5328118e-01 3.36e+00 6.45e+02  -6.0 3.90e+02  -8.7 1.00e+00 5.20e-01h  1
 114 -2.5331134e-01 7.58e-01 2.76e+02  -6.0 2.18e+02  -9.1 5.56e-01 1.00e+00h  1
 115 -2.5344068e-01 3.25e+00 1.83e+02  -6.0 1.38e+03  -9.6 2.39e-01 2.95e-01h  1
 116 -2.5345649e-01 2.86e+00 4.32e+02  -6.0 1.94e+02  -9.2 2.51e-02 1.20e-01h  1
 117 -2.5355887e-01 2.00e+00 1.45e+02  -6.0 6.39e+02  -9.7 1.45e-01 3.52e-01h  1
 118 -2.5360774e-01 3.31e+00 1.31e+02  -6.0 1.17e+03  -9.2 9.39e-02 5.92e-02h  1
 119 -2.5368291e-01 7.28e+00 8.65e+01  -6.0 3.32e+02  -8.8 4.33e-01 2.28e-01h  1
iter    objective    inf_pr   inf_du lg(mu)  ||d||  lg(rg) alpha_du alpha_pr  ls
 120 -2.5380782e-01 1.48e+01 7.82e+01  -6.0 2.18e+03  -9.3 7.52e-02 4.66e-02h  1
 121 -2.5380874e-01 1.48e+01 7.95e+01  -6.0 6.34e+02  -9.8 3.94e-01 5.88e-03h  1
 122 -2.5410551e-01 9.17e+00 4.92e+01  -6.0 1.49e+03 -10.2 4.36e-01 3.84e-01h  1
 123 -2.5411155e-01 5.70e+00 1.23e+02  -6.0 7.22e+02  -9.8 1.01e-01 3.80e-01h  1
 124 -2.5431253e-01 5.25e+00 4.50e+01  -6.0 1.51e+03 -10.3 2.83e-01 1.00e+00h  1
 125 -2.5438544e-01 1.43e+00 3.43e+00  -6.0 6.21e+02  -9.9 8.64e-01 1.00e+00h  1
 126 -2.5441837e-01 2.80e-01 3.39e-01  -6.0 2.43e+02  -9.4 1.00e+00 8.76e-01h  1
 127 -2.5451835e-01 3.34e+00 5.63e+00  -6.0 1.35e+03  -9.9 1.00e+00 1.00e+00h  1
 128 -2.5471730e-01 2.63e+00 5.17e+00  -6.0 6.11e+02  -9.5 1.00e+00 1.00e+00h  1
 129 -2.5475940e-01 1.82e+00 3.55e+00  -6.0 1.08e+02  -8.2 2.04e-01 3.13e-01h  1
Error in an AMPL evaluation. Run with "halt_on_ampl_error yes" to see details.
Warning: Cutting back alpha due to evaluation error
iter    objective    inf_pr   inf_du lg(mu)  ||d||  lg(rg) alpha_du alpha_pr  ls
 130 -2.5477908e-01 1.50e+00 3.74e+00  -6.0 1.09e+02  -8.6 4.02e-01 1.79e-01h  2
 131 -2.5499361e-01 3.03e+00 3.94e+00  -6.0 5.97e+02  -9.1 3.83e-01 4.49e-01h  1
 132 -2.5550633e-01 2.50e+01 3.22e+01  -6.0 4.75e+03  -9.6 5.61e-02 1.46e-01h  1
 133 -2.5563370e-01 2.15e+01 2.87e+01  -6.0 2.47e+02  -7.4 8.88e-02 1.38e-01h  1
 134 -2.5562138e-01 1.51e-01 4.32e+01  -6.0 1.35e+02  -7.8 3.34e-01 1.00e+00h  1
 135 -2.5559545e-01 6.07e-02 6.06e-01  -6.0 4.20e+00  -6.5 1.00e+00 1.00e+00h  1
 136 -2.5565663e-01 3.69e-02 4.80e+00  -6.0 4.82e+00  -7.0 1.00e+00 8.16e-01h  1
 137 -2.5573667e-01 1.35e-02 7.13e+00  -6.0 6.00e+00  -6.6 1.00e+00 6.51e-01h  1
 138 -2.5573227e-01 7.57e-04 2.67e-02  -6.0 5.09e+00  -7.0 1.00e+00 1.00e+00f  1
 139 -2.5583453e-01 6.49e-03 2.31e+00  -6.0 1.49e+02  -6.6 2.64e-02 2.60e-02h  1
iter    objective    inf_pr   inf_du lg(mu)  ||d||  lg(rg) alpha_du alpha_pr  ls
 140 -2.5595246e-01 7.15e-03 3.22e+00  -6.0 5.91e+00  -7.1 1.00e+00 1.00e+00h  1
 141 -2.5597315e-01 2.82e-03 3.31e+03  -6.0 1.50e+01  -7.6 1.72e-01 1.00e+00h  1
 142 -2.5595716e-01 1.57e-02 1.24e+01  -6.0 3.52e+01  -8.0 1.00e+00 1.00e+00h  1
 143 -2.5594487e-01 4.31e-02 3.63e-02  -6.0 6.31e+01  -8.5 1.00e+00 1.00e+00h  1
 144 -2.5598661e-01 1.77e-01 5.83e-02  -6.0 1.06e+02  -9.0 1.00e+00 1.00e+00h  1
 145 -2.5607596e-01 1.00e+00 1.62e-01  -6.0 2.52e+02  -9.5 1.00e+00 1.00e+00h  1
 146 -2.5618398e-01 3.08e+00 3.60e-01  -6.0 4.94e+02  -9.9 1.00e+00 1.00e+00h  1
 147 -2.5630061e-01 7.41e+00 5.11e-01  -6.0 1.30e+03 -10.4 1.00e+00 1.00e+00h  1
 148 -2.5633550e-01 1.12e+01 3.14e+01  -6.0 2.69e+03 -10.9 1.00e+00 2.80e-01h  1
 149 -2.5633907e-01 1.09e+01 2.80e+01  -6.0 3.47e+03 -10.5 1.48e-01 7.86e-02h  1
iter    objective    inf_pr   inf_du lg(mu)  ||d||  lg(rg) alpha_du alpha_pr  ls
 150 -2.5636631e-01 2.09e+01 4.16e+01  -6.0 2.47e+03 -11.0 1.00e+00 4.72e-01h  1
 151 -2.5636972e-01 1.62e+01 4.04e+01  -6.0 1.16e+03  -9.6 1.20e-01 2.27e-01h  1
 152 -2.5638160e-01 6.63e+00 3.98e+01  -6.0 4.42e+02 -10.1 1.53e-01 6.11e-01h  1
 153 -2.5638311e-01 6.17e+00 4.02e+01  -6.0 3.56e+03  -9.7 1.25e-04 6.76e-02H  1
 154 -2.5638604e-01 6.27e+00 1.09e+01  -6.0 7.35e+02  -9.3 7.11e-01 1.00e+00h  1
 155 -2.5639328e-01 1.62e-01 2.54e-02  -6.0 1.51e+02  -9.7 1.00e+00 1.00e+00h  1
 156 -2.5640884e-01 1.41e+00 8.38e-02  -6.0 4.33e+02 -10.2 1.00e+00 1.00e+00h  1
 157 -2.5642358e-01 1.50e+00 5.84e+01  -6.0 2.42e+03 -10.7 1.00e+00 1.82e-01h  2
 158 -2.5641701e-01 1.58e+01 1.48e+02  -6.0 8.24e+03    -  4.02e-01 1.32e-01h  1
 159 -2.5641864e-01 2.85e+01 1.22e+02  -6.0 3.21e+03    -  1.65e-01 3.95e-01h  1
iter    objective    inf_pr   inf_du lg(mu)  ||d||  lg(rg) alpha_du alpha_pr  ls
 160 -2.5643747e-01 1.55e+01 3.15e+03  -6.0 1.39e+03    -  8.29e-02 1.00e+00h  1
 161 -2.5657084e-01 5.49e+00 1.12e+03  -6.0 1.73e+02  -8.4 3.14e-01 6.45e-01h  1
 162 -2.5655485e-01 4.57e+00 1.17e+03  -6.0 1.02e+02  -8.9 5.93e-01 1.67e-01h  1
 163 -2.5660386e-01 4.24e+00 1.09e+03  -6.0 1.09e+03  -9.4 7.52e-02 7.36e-02h  1
 164 -2.5717222e-01 1.06e+02 8.55e+02  -6.0 8.41e+03  -9.9 1.95e-02 2.22e-01h  1
 165 -2.5724084e-01 9.85e+01 5.73e+04  -6.0 1.86e+03  -7.6 1.99e-01 9.73e-02h  1
 166 -2.5728918e-01 7.73e+01 2.28e+05  -6.0 6.53e+02  -6.3 2.88e-05 2.20e-01h  1
 167 -2.5724833e-01 3.99e+01 1.47e+05  -6.0 2.12e+01  -6.8 3.96e-01 6.32e-01h  1
 168 -2.5728682e-01 1.69e+01 4.46e+04  -6.0 1.07e+01  -7.3 7.23e-01 6.94e-01h  1
 169 -2.5722316e-01 2.36e+00 6.26e+03  -6.0 6.79e+00  -7.8 9.43e-01 8.58e-01h  1
iter    objective    inf_pr   inf_du lg(mu)  ||d||  lg(rg) alpha_du alpha_pr  ls
 170 -2.5721826e-01 6.26e-03 1.87e-02  -6.0 1.71e+01  -8.2 1.00e+00 1.00e+00h  1
 171 -2.5725245e-01 5.57e-02 3.04e-02  -6.0 5.56e+01  -8.7 1.00e+00 1.00e+00h  1
 172 -2.5731511e-01 4.01e-01 1.03e-01  -6.0 1.49e+02  -9.2 1.00e+00 1.00e+00h  1
 173 -2.5737922e-01 1.97e+00 2.80e-01  -6.0 3.32e+02  -9.7 1.00e+00 1.00e+00h  1
 174 -2.5737840e-01 3.24e+00 4.15e+01  -6.0 1.86e+04    -  1.59e-01 2.78e-02h  1
 175 -2.5738510e-01 1.28e+01 1.49e+01  -6.0 2.37e+03    -  6.52e-01 8.07e-01h  1
 176 -2.5731810e-01 1.75e-01 1.45e-01  -6.0 2.33e+02    -  1.00e+00 1.00e+00h  1
 177 -2.5731644e-01 1.65e-03 1.66e-03  -6.0 9.40e+00    -  1.00e+00 1.00e+00h  1
 178 -2.5731634e-01 1.52e-06 1.92e-06  -6.0 4.02e-01    -  1.00e+00 1.00e+00h  1
 179 -2.5774177e-01 1.01e+00 2.03e+01  -7.5 1.63e+03    -  1.63e-01 2.20e-01h  1
iter    objective    inf_pr   inf_du lg(mu)  ||d||  lg(rg) alpha_du alpha_pr  ls
 180 -2.5803536e-01 1.85e+00 4.24e+01  -7.5 1.79e+03    -  5.45e-01 3.20e-01h  1
 181 -2.5813626e-01 1.78e+00 7.33e+01  -7.5 1.55e+03    -  4.99e-01 1.58e-01h  1
 182 -2.5835455e-01 1.68e+00 2.07e+01  -7.5 4.39e+02 -10.1 1.95e-01 4.92e-01h  1
 183 -2.5852299e-01 9.38e-01 2.56e+01  -7.5 2.19e+02  -9.7 4.66e-01 7.52e-01h  1
 184 -2.5855695e-01 8.82e-01 7.20e+00  -7.5 1.49e+03    -  7.70e-01 2.67e-01h  1
 185 -2.5859222e-01 3.69e-01 3.02e+00  -7.5 2.34e+02 -10.2 1.00e+00 8.39e-01h  1
 186 -2.5864267e-01 9.87e-01 6.62e-01  -7.5 1.16e+03    -  8.80e-01 9.95e-01h  1
 187 -2.5865146e-01 7.20e-01 1.57e+02  -7.5 2.14e+02 -10.7 2.15e-02 2.69e-01h  1
 188 -2.5865325e-01 6.05e-01 1.37e+02  -7.5 1.68e+02  -9.3 3.33e-02 1.61e-01f  1
 189 -2.5863741e-01 1.49e-02 1.22e+02  -7.5 2.92e+01  -9.8 1.11e-01 1.00e+00h  1
iter    objective    inf_pr   inf_du lg(mu)  ||d||  lg(rg) alpha_du alpha_pr  ls
 190 -2.5865075e-01 3.72e-01 1.93e+01  -7.5 1.70e+02 -10.3 1.00e+00 8.42e-01h  1
 191 -2.5866802e-01 4.97e+00 6.59e-01  -7.5 5.26e+02    -  5.60e-01 1.00e+00h  1
 192 -2.5866546e-01 2.43e+00 1.62e-01  -7.5 1.80e+01 -10.8 1.00e+00 5.11e-01h  1
 193 -2.5866250e-01 1.73e-02 2.09e-03  -7.5 3.78e+01 -11.2 1.00e+00 1.00e+00h  1
 194 -2.5866250e-01 1.91e-01 2.08e-04  -7.5 1.28e+02 -11.7 1.00e+00 1.00e+00h  1
 195 -2.5866251e-01 1.76e+00 8.38e-02  -7.5 1.07e+03 -12.2 4.26e-01 2.50e-01h  3
 196 -2.5866254e-01 6.99e-01 3.87e-02  -7.5 3.20e+02    -  3.05e-01 1.00e+00H  1
 197 -2.5866254e-01 2.97e-02 1.09e-06  -7.5 1.37e+01    -  1.00e+00 1.00e+00h  1
 198 -2.5866258e-01 1.23e+00 7.24e-02  -7.5 3.29e+03 -11.8 2.56e-02 7.55e-02h  4
 199 -2.5866260e-01 1.03e-01 1.44e-04  -7.5 9.13e+01 -11.3 1.00e+00 1.00e+00h  1
iter    objective    inf_pr   inf_du lg(mu)  ||d||  lg(rg) alpha_du alpha_pr  ls
 200 -2.5866264e-01 7.11e-01 8.85e-04  -7.5 2.42e+02 -11.8 1.00e+00 1.00e+00h  1
 201 -2.5866301e-01 7.59e-01 3.46e-02  -7.5 1.03e+03 -12.3 1.00e+00 1.00e+00H  1
 202 -2.5866326e-01 1.45e-01 3.70e-03  -7.5 5.11e+02 -11.9 1.00e+00 1.00e+00H  1
 203 -2.5866523e-01 8.20e+01 3.24e+00  -7.5 2.62e+03 -12.4 2.17e-02 1.00e+00H  1
 204 -2.5866493e-01 8.07e-01 2.87e-02  -7.5 3.21e+02    -  1.00e+00 1.00e+00h  1
 205 -2.5866520e-01 1.97e+00 8.45e-01  -7.5 9.11e+03 -12.8 1.75e-01 3.17e-02h  4
 206 -2.5866547e-01 3.09e+00 8.41e-01  -7.5 3.00e+04 -13.3 9.70e-03 9.41e-03h  4
 207 -2.5866872e-01 1.71e+01 7.51e-01  -7.5 2.20e+03 -12.0 5.65e-01 1.00e+00H  1
 208 -2.5866925e-01 2.96e+00 2.66e-02  -7.5 4.08e+02    -  9.88e-01 1.00e+00h  1
 209 -2.5866940e-01 2.51e-01 2.14e-03  -7.5 1.20e+02    -  1.00e+00 1.00e+00h  1
iter    objective    inf_pr   inf_du lg(mu)  ||d||  lg(rg) alpha_du alpha_pr  ls
 210 -2.5866940e-01 1.47e-04 7.05e-06  -7.5 2.71e+00    -  1.00e+00 1.00e+00h  1
 211 -2.5866940e-01 2.83e-10 3.99e-11  -7.5 3.09e-03    -  1.00e+00 1.00e+00h  1
 212 -2.5867095e-01 2.25e+00 3.70e+00  -9.0 2.00e+03    -  4.65e-01 1.83e-01h  1
 213 -2.5867420e-01 5.65e+01 6.12e-01  -9.0 3.36e+03    -  3.82e-01 5.38e-01h  1
 214 -2.5867539e-01 3.89e+01 2.46e+01  -9.0 1.50e+03    -  3.93e-03 7.01e-01h  1
 215 -2.5867646e-01 2.20e+01 3.69e+00  -9.0 1.03e+03    -  1.19e-01 9.40e-01h  1
 216 -2.5867776e-01 3.48e+01 2.01e+00  -9.0 1.27e+03    -  4.67e-01 1.00e+00h  1
 217 -2.5867838e-01 3.80e+01 1.40e+00  -9.0 3.01e+03 -12.5 3.01e-01 2.32e-01h  1
 218 -2.5867900e-01 2.72e+01 9.21e+00  -9.0 2.28e+03    -  1.30e-01 3.44e-01h  1
 219 -2.5867926e-01 1.08e+00 3.46e+01  -9.0 1.89e+02 -12.9 1.40e-01 1.00e+00h  1
iter    objective    inf_pr   inf_du lg(mu)  ||d||  lg(rg) alpha_du alpha_pr  ls
 220 -2.5867925e-01 6.86e-02 7.93e-01  -9.0 5.31e+01 -10.7 2.50e-01 1.00e+00h  1
 221 -2.5867944e-01 1.19e+00 6.10e-01  -9.0 7.09e+02    -  2.30e-01 1.73e-01h  1
 222 -2.5867946e-01 4.46e-02 3.66e-06  -9.0 2.55e+01 -11.2 1.00e+00 1.00e+00h  1
 223 -2.5867949e-01 2.16e-01 6.37e-06  -9.0 6.40e+01 -11.7 1.00e+00 1.00e+00h  1
 224 -2.5867958e-01 2.04e+00 6.93e-05  -9.0 2.02e+02 -12.1 1.00e+00 1.00e+00h  1
 225 -2.5868008e-01 3.79e+01 2.30e-02  -9.0 1.78e+03 -12.6 4.30e-02 1.00e+00h  1
 226 -2.5868049e-01 4.33e+00 6.64e-04  -9.0 5.46e+02 -12.2 1.00e+00 1.00e+00h  1
 227 -2.5868178e-01 8.79e+01 1.24e-02  -9.0 2.95e+03 -12.7 1.00e+00 8.83e-01h  1
 228 -2.5868200e-01 8.10e+01 1.61e-01  -9.0 8.08e+03 -13.1 3.09e-01 7.94e-02h  3
 229 -2.5868320e-01 6.20e+01 2.83e-02  -9.0 2.38e+03 -12.7 8.50e-02 4.71e-01h  1
iter    objective    inf_pr   inf_du lg(mu)  ||d||  lg(rg) alpha_du alpha_pr  ls
 230 -2.5868333e-01 6.12e+01 2.72e-02  -9.0 2.15e+04 -13.2 2.42e-02 1.28e-02h  4
 231 -2.5868618e-01 7.99e+01 4.62e-01  -9.0 2.51e+03 -12.8 5.54e-01 9.58e-01h  1
 232 -2.5868696e-01 6.14e+01 1.01e+00  -9.0 6.91e+03 -13.2 2.63e-02 2.37e-01H  1
 233 -2.5868877e-01 5.51e+01 4.39e+00  -9.0 1.78e+03    -  7.09e-02 1.00e+00h  1
 234 -2.5868950e-01 1.24e+01 8.84e+01  -9.0 7.71e+02 -11.0 1.44e-02 1.00e+00h  1
 235 -2.5868961e-01 3.98e-01 5.83e-02  -9.0 1.38e+02 -11.5 1.37e-01 1.00e+00h  1
 236 -2.5869020e-01 8.57e+00 1.83e-02  -9.0 6.73e+02 -11.1 7.20e-01 1.00e+00h  1
 237 -2.5869047e-01 1.20e+00 7.41e-04  -9.0 2.39e+02 -11.5 1.00e+00 1.00e+00h  1
 238 -2.5869126e-01 7.22e+00 3.87e-03  -9.0 6.02e+02 -12.0 1.00e+00 1.00e+00h  1
 239 -2.5869340e-01 4.64e+01 2.01e-02  -9.0 1.74e+03 -12.5 1.00e+00 1.00e+00h  1
iter    objective    inf_pr   inf_du lg(mu)  ||d||  lg(rg) alpha_du alpha_pr  ls
 240 -2.5869390e-01 4.52e+01 3.61e-02  -9.0 4.55e+03 -13.0 3.40e-01 1.00e-01h  2
 241 -2.5869407e-01 4.48e+01 1.12e-01  -9.0 1.12e+04 -13.4 2.02e-01 1.62e-02h  3
 242 -2.5869412e-01 4.47e+01 2.16e-01  -9.0 3.34e+04    -  1.09e-01 3.15e-03h  5
 243 -2.5869449e-01 4.28e+01 1.01e+00  -9.0 5.89e+03    -  1.00e+00 6.89e-02h  2
 244 -2.5869565e-01 3.60e+01 5.02e-01  -9.0 2.14e+03    -  7.60e-01 4.78e-01h  1
 245 -2.5869609e-01 3.16e+01 1.64e+00  -9.0 3.73e+03    -  7.66e-02 1.75e-01h  2
 246 -2.5869662e-01 3.69e+01 3.82e+00  -9.0 4.27e+03    -  2.15e-02 2.36e-01H  1
 247 -2.5869702e-01 3.12e+01 2.79e+00  -9.0 2.72e+03    -  1.06e-01 1.94e-01h  1
 248 -2.5869800e-01 3.35e+01 2.38e+00  -9.0 1.66e+03    -  2.47e-02 6.91e-01h  1
 249 -2.5869813e-01 3.16e+01 2.74e+00  -9.0 4.36e+03    -  2.03e-01 6.45e-02h  1
iter    objective    inf_pr   inf_du lg(mu)  ||d||  lg(rg) alpha_du alpha_pr  ls
 250 -2.5869833e-01 2.79e+01 3.24e+00  -9.0 1.64e+03    -  1.30e-01 1.68e-01h  1
 251 -2.5869854e-01 2.46e+01 2.59e+00  -9.0 1.69e+03    -  8.22e-02 1.81e-01h  1
 252 -2.5869876e-01 2.20e+01 2.07e+00  -9.0 1.62e+03    -  1.58e-01 1.94e-01h  1
 253 -2.5869888e-01 2.02e+01 2.37e+00  -9.0 1.65e+03    -  5.52e-02 1.12e-01h  1
 254 -2.5869915e-01 1.87e+01 3.58e+00  -9.0 1.59e+03    -  1.15e-01 2.57e-01h  1
 255 -2.5869924e-01 1.74e+01 3.82e+00  -9.0 1.64e+03    -  3.90e-02 9.69e-02h  1
 256 -2.5869950e-01 1.69e+01 6.89e+00  -9.0 1.56e+03    -  8.45e-02 2.82e-01h  1
 257 -2.5869960e-01 1.56e+01 6.38e+00  -9.0 1.63e+03    -  3.60e-02 1.19e-01h  1
 258 -2.5869979e-01 1.53e+01 5.75e+00  -9.0 1.54e+03    -  8.70e-02 2.54e-01h  1
 259 -2.5869980e-01 1.46e+01 1.46e+01  -9.0 1.61e+03    -  2.94e-03 4.59e-02h  1
iter    objective    inf_pr   inf_du lg(mu)  ||d||  lg(rg) alpha_du alpha_pr  ls
 260 -2.5869976e-01 1.27e+01 2.24e+01  -9.0 6.90e+02    -  1.09e-02 1.29e-01h  1
 261 -2.5869969e-01 4.06e+00 8.46e+00  -9.0 1.14e+02    -  1.77e-01 6.89e-01h  1
 262 -2.5869965e-01 4.25e-03 5.65e-03  -9.0 1.74e+01    -  9.51e-01 1.00e+00h  1
 263 -2.5869966e-01 8.00e-04 1.08e-07  -9.0 5.76e+00    -  1.00e+00 1.00e+00h  1
 264 -2.5869966e-01 1.36e-07 1.54e-11  -9.0 7.51e-02    -  1.00e+00 1.00e+00h  1
 265 -2.5869966e-01 2.82e-10 3.10e-14  -9.0 4.59e-06    -  1.00e+00 1.00e+00h  1

Number of Iterations....: 265

                                   (scaled)                 (unscaled)
Objective...............:  -2.5869965714916698e-01   -2.5869965714916698e-01
Dual infeasibility......:   3.1007041821597631e-14    3.1007041821597631e-14
Constraint violation....:   2.8161162117512628e-10    2.8161162117512628e-10
Complementarity.........:   9.0909092738976925e-10    9.0909092738976925e-10
Overall NLP error.......:   9.0909092738976925e-10    9.0909092738976925e-10


Number of objective function evaluations             = 440
Number of objective gradient evaluations             = 266
Number of equality constraint evaluations            = 442
Number of inequality constraint evaluations          = 441
Number of equality constraint Jacobian evaluations   = 267
Number of inequality constraint Jacobian evaluations = 267
Number of Lagrangian Hessian evaluations             = 265
Total CPU secs in IPOPT (w/o function evaluations)   =    609.463
Total CPU secs in NLP function evaluations           =      9.048

EXIT: Optimal Solution Found.
